
  17    4
  10   10   10   10

   0   0   0   0   0   3 2 3 6 
   9  10  10  10  10   3 7 5 4 
   9  10  10  10  10   3 15 12 5 
   4  10  10  10  10   5 16 15 12 9 8 
   2  10  10  10  10   4 16 11 9 8 
   7  10  10  10  10   3 11 10 9 
  10  10  10  10  10   3 15 13 9 
   5  10  10  10  10   1 10 
   8  10  10  10  10   1 14 
   2  10  10  10  10   1 13 
   8  10  10  10  10   1 13 
   3  10  10  10  10   1 14 
  10  10  10  10  10   1 17
   6  10  10  10  10   1 17
  10  10  10  10  10   1 17
   3  10  10  10  10   1 17
   0   0   0   0   0   0 
